const contact = `

{ 'contact'
	molecules{
		'plan'
	}
	
	@@plan{
		'adresse',
		'map'
	}
	
}

`;