const produits = `

{ 'produits'
	molecules{
		'pro',
		'sliderHome'
	}
	
	@@pro{
		'logo',
		'slider',
		'texte'
	}
	
}

`;